000 001 000 000 000 000 000 000 000 000 000 000 000 000 000 000 000 -99 000 000 -99 000 -99 000 000 000 001 003 016 001 000
000 001 000 000 000 000 000 000 000 000 000 000 000 000 000 000 -99 -99 -99 -99 -99 000 000 -99 000 000 000 001 009 002 000
000 000 000 000 000 000 000 000 000 000 000 000 000 000 000 000 000 -99 -99 -99 -99 000 000 000 000 000 000 000 000 001 001
000 000 000 000 000 000 000 000 000 000 000 000 000 000 000 000 -99 -99 -99 -99 -99 -99 000 000 000 000 000 000 000 000 001
000 000 000 000 000 000 000 000 000 000 000 000 000 000 000 000 000 -99 -99 -99 000 000 000 000 000 000 -99 -99 000 003 001
000 000 000 000 001 000 000 000 000 000 000 000 000 000 000 000 000 000 -99 -99 000 000 000 000 000 000 -99 -99 001 003 004
000 000 000 000 000 000 000 000 000 000 000 000 000 000 000 000 000 000 -99 -99 000 000 000 000 000 000 -99 -99 001 003 006
000 000 000 000 000 000 000 000 000 000 000 001 000 000 000 000 000 000 -99 -99 000 000 000 000 000 000 -99 -99 001 003 009
000 001 000 000 000 000 000 001 000 000 000 000 000 000 000 000 000 000 -99 000 000 000 000 000 000 000 000 001 002 004 008
000 000 000 000 000 000 000 000 000 000 000 001 000 000 000 000 000 000 000 000 000 000 000 000 000 000 000 000 002 003 006
000 000 000 000 000 000 000 000 000 000 001 001 000 000 001 000 000 000 000 -99 000 000 -99 000 000 001 000 000 001 004 007
000 000 000 000 000 000 000 000 000 000 001 001 001 000 001 000 000 000 000 000 000 000 -99 000 000 001 000 000 000 002 005
000 000 000 000 001 000 000 000 000 000 002 002 001 001 001 000 000 000 000 000 000 000 -99 000 000 000 000 000 000 001 002
000 000 000 000 000 000 000 000 000 001 001 004 002 000 001 000 000 000 000 000 000 000 -99 000 000 000 000 000 000 000 001
000 000 000 000 000 000 000 000 000 001 002 005 004 001 000 001 000 000 000 000 -99 000 -99 000 000 000 000 000 000 001 001
000 000 000 000 000 000 000 000 000 001 002 002 001 001 001 001 000 000 000 -99 -99 000 -99 000 000 000 000 000 001 002 004
000 000 000 000 000 000 000 000 000 002 002 003 002 001 000 000 000 000 000 000 000 000 000 000 000 000 000 000 001 003 003
000 000 000 000 000 000 000 000 000 001 003 004 003 001 000 000 000 000 000 000 000 000 001 000 000 000 000 001 003 005 010
000 000 000 000 000 000 000 000 000 001 001 003 003 001 001 000 000 000 000 000 000 001 001 001 000 000 001 004 010 017 040
000 000 000 000 000 000 000 000 000 002 003 003 002 002 002 001 000 000 000 000 000 001 002 003 002 001 001 006 017 030 056
000 000 000 000 000 000 000 000 001 002 003 003 002 002 003 001 000 000 000 000 000 001 003 003 003 002 003 006 028 048 046
000 000 000 000 000 000 000 000 001 001 003 004 002 003 003 002 000 000 000 000 000 001 002 003 004 003 003 006 017 046 030
000 000 000 000 000 000 000 001 001 001 003 005 002 004 003 003 001 000 000 000 000 001 002 002 003 004 003 -99 010 030 009
000 000 000 000 000 000 000 000 002 002 004 007 005 004 004 006 002 001 000 000 001 002 003 004 003 004 004 029 011 013 003
000 001 000 000 001 000 000 000 001 003 005 007 004 005 005 005 005 003 002 001 002 003 006 005 005 004 008 029 012 009 001
000 001 000 000 001 000 000 000 000 002 005 007 008 008 007 008 008 005 004 004 002 003 007 006 008 -99 -99 024 010 004 001
001 001 001 001 000 001 000 000 000 003 005 009 007 010 008 020 012 006 004 009 005 006 007 007 008 -99 -99 005 012 004 001
002 003 001 001 000 000 000 000 001 004 007 017 012 013 023 020 007 008 007 012 006 009 007 004 006 -99 -99 -99 -99 -99 000
005 004 002 001 001 001 000 001 002 007 013 020 013 015 018 008 006 008 007 013 007 017 006 005 010 -99 -99 -99 -99 -99 000
007 006 009 002 003 002 000 001 002 007 019 019 025 022 021 012 008 008 008 011 007 028 020 011 013 010 007 -99 -99 -99 -99
012 009 008 011 007 003 002 001 002 007 014 026 030 025 013 019 013 011 010 012 018 037 023 013 016 014 007 -99 -99 -99 -99
011 009 010 011 006 004 008 002 003 006 011 037 040 028 010 019 021 013 010 050 043 042 029 028 025 019 010 005 003 -99 -99
007 005 009 003 002 002 003 001 002 007 021 042 041 011 008 021 028 013 012 040 042 033 035 047 035 024 016 012 005 000 000
001 001 002 000 001 000 000 001 004 015 019 022 018 011 015 024 017 016 007 013 028 021 029 044 021 006 006 017 003 000 000
000 000 000 000 000 000 000 000 004 013 012 012 014 014 016 014 008 013 004 007 007 007 010 014 005 002 005 013 003 000 000
000 000 000 000 000 000 000 001 010 011 004 009 015 013 020 034 013 015 004 002 001 001 001 001 000 000 001 001 000 000 000
000 000 000 000 000 000 000 002 018 023 009 012 012 009 018 027 016 007 008 001 000 000 000 000 000 000 000 000 000 000 000
000 -99 -99 000 000 000 000 002 015 013 010 009 008 019 021 020 013 007 004 001 000 000 000 000 -99 000 000 -99 -99 000 000
000 -99 -99 -99 000 000 001 001 005 006 011 013 030 033 013 006 002 001 000 000 000 000 000 000 000 -99 000 -99 -99 000 000
000 -99 -99 000 000 000 000 000 000 002 005 017 031 011 007 002 000 000 000 -99 -99 -99 000 000 000 000 000 -99 -99 000 000
-99 000 -99 000 000 000 000 000 000 000 002 006 004 001 001 001 000 000 -99 -99 -99 -99 000 000 000 000 000 -99 -99 000 000
000 000 -99 -99 -99 -99 000 000 000 000 000 000 000 000 000 000 000 000 000 000 -99 -99 000 000 000 000 -99 -99 -99 000 000
000 -99 -99 -99 -99 -99 -99 -99 -99 000 000 000 000 000 -99 000 000 -99 000 000 -99 -99 -99 000 000 000 -99 -99 -99 -99 -99
-99 -99 -99 -99 -99 -99 -99 -99 -99 -99 -99 000 -99 -99 000 000 000 000 000 000 000 -99 000 000 000 000 -99 -99 -99 -99 -99
-99 -99 -99 -99 -99 -99 -99 -99 -99 -99 -99 000 000 -99 000 000 -99 -99 000 000 000 -99 000 000 000 -99 -99 -99 -99 -99 000
000 -99 -99 -99 -99 -99 -99 -99 -99 -99 -99 000 000 -99 000 -99 -99 000 000 000 -99 -99 -99 000 000 000 -99 -99 -99 -99 000
000 -99 -99 -99 -99 -99 -99 -99 -99 -99 000 000 000 000 -99 -99 -99 000 000 -99 -99 -99 -99 000 000 -99 -99 -99 -99 -99 000
-99 -99 -99 -99 -99 -99 -99 -99 -99 -99 -99 -99 -99 -99 -99 -99 -99 -99 -99 -99 -99 -99 -99 000 000 -99 -99 -99 -99 -99 -99
-99 -99 -99 -99 -99 -99 -99 -99 -99 -99 -99 -99 -99 -99 -99 -99 -99 -99 -99 000 -99 -99 000 -99 -99 -99 -99 000 -99 -99 -99
-99 -99 -99 -99 -99 -99 -99 -99 -99 -99 -99 -99 -99 -99 -99 -99 -99 -99 000 000 -99 000 -99 -99 -99 -99 -99 000 -99 -99 -99
-99 -99 -99 -99 -99 -99 -99 -99 -99 -99 -99 -99 -99 -99 -99 -99 -99 -99 -99 -99 -99 000 -99 -99 -99 -99 000 -99 -99 -99 -99
-99 -99 -99 -99 -99 -99 -99 -99 -99 -99 -99 -99 -99 -99 -99 -99 -99 -99 -99 -99 -99 -99 -99 -99 -99 -99 -99 -99 -99 -99 -99
-99 -99 -99 -99 -99 -99 -99 -99 -99 -99 -99 -99 -99 -99 -99 -99 -99 -99 -99 -99 -99 -99 -99 -99 -99 -99 -99 -99 -99 -99 -99
-99 -99 -99 -99 -99 -99 -99 -99 -99 -99 -99 -99 -99 -99 -99 -99 -99 -99 -99 -99 -99 -99 -99 -99 -99 -99 -99 -99 -99 -99 -99
-99 -99 -99 -99 -99 -99 -99 -99 -99 -99 -99 -99 -99 -99 -99 -99 -99 -99 -99 -99 -99 -99 -99 -99 -99 -99 -99 -99 -99 -99 -99
